min: c;

c = 3.60551693533273 * u4_t1_h1 + 3.04092795249486 * u4_t1_h2 + 3.65342290669847 * u4_t1_h3 + 3.34423400070498 * u4_t1_h4 + 3.34423400070498 * u4_t10_h4 + 3.1630243970635 * u4_t1_h5 + 3.1630243970635 * u4_t10_h5 + 3.83425525963864 * u4_t1_h6 + 3.83425525963864 * u4_t10_h6 + 4.11381296415122 * u4_t1_h7 + 4.11381296415122 * u4_t10_h7 + 5.61066458689976 * u4_t1_h8 + 5.61066458689976 * u4_t9_h8 + 5.61066458689976 * u4_t10_h8 + 4.77474062053618 * u4_t9_h9 + 4.77474062053618 * u4_t10_h9 + 5.6526758435808 * u4_t9_h10 + 5.6526758435808 * u4_t10_h10 + 3.7617791679847 * u4_t2_h11 + 3.7617791679847 * u4_t4_h11 + 3.7617791679847 * u4_t9_h11 + 3.7617791679847 * u4_t10_h11 + 5.82696521322066 * u4_t2_h12 + 5.82696521322066 * u4_t3_h12 + 5.82696521322066 * u4_t4_h12 + 5.82696521322066 * u4_t8_h12 + 5.82696521322066 * u4_t9_h12 + 5.82696521322066 * u4_t10_h12 + 4.92349984258871 * u4_t2_h13 + 4.92349984258871 * u4_t3_h13 + 4.92349984258871 * u4_t4_h13 + 4.92349984258871 * u4_t8_h13 + 4.92349984258871 * u4_t9_h13 + 5.42736701362619 * u4_t2_h14 + 5.42736701362619 * u4_t3_h14 + 5.42736701362619 * u4_t4_h14 + 5.42736701362619 * u4_t8_h14 + 5.42736701362619 * u4_t9_h14 + 6.54904951238883 * u4_t2_h15 + 6.54904951238883 * u4_t3_h15 + 6.54904951238883 * u4_t4_h15 + 6.54904951238883 * u4_t8_h15 + 6.54904951238883 * u4_t9_h15 + 6.13122237037533 * u4_t2_h16 + 6.13122237037533 * u4_t3_h16 + 6.13122237037533 * u4_t4_h16 + 6.13122237037533 * u4_t5_h16 + 6.13122237037533 * u4_t8_h16 + 6.13122237037533 * u4_t9_h16 + 5.90834968696809 * u4_t2_h17 + 5.90834968696809 * u4_t3_h17 + 5.90834968696809 * u4_t5_h17 + 5.90834968696809 * u4_t8_h17 + 5.90834968696809 * u4_t9_h17 + 6.52981939588579 * u4_t2_h18 + 6.52981939588579 * u4_t3_h18 + 6.52981939588579 * u4_t5_h18 + 6.52981939588579 * u4_t8_h18 + 6.52981939588579 * u4_t9_h18 + 5.09663362786039 * u4_t2_h19 + 5.09663362786039 * u4_t3_h19 + 5.09663362786039 * u4_t6_h19 + 5.09663362786039 * u4_t8_h19 + 5.09663362786039 * u4_t9_h19 + 5.29499820849339 * u4_t2_h20 + 5.29499820849339 * u4_t6_h20 + 5.29499820849339 * u4_t9_h20 + 5.19955997379004 * u4_t6_h21 + 5.3173790727871 * u4_t6_h22 + 5.3173790727871 * u4_t7_h22 + 5.74339900671985 * u4_t6_h23 + 5.74339900671985 * u4_t7_h23;
0 <= u4_t1_h1 <= 1;
0 <= u4_t1_h2 <= 1;
0 <= u4_t1_h3 <= 1;
0 <= u4_t1_h4 <= 1;
0 <= u4_t1_h5 <= 1;
0 <= u4_t1_h6 <= 1;
0 <= u4_t1_h7 <= 1;
0 <= u4_t1_h8 <= 1;
u4_t1_h1 + u4_t1_h2 + u4_t1_h3 + u4_t1_h4 + u4_t1_h5 + u4_t1_h6 + u4_t1_h7 + u4_t1_h8 = 1;
0 <= u4_t2_h11 <= 1;
0 <= u4_t2_h12 <= 1;
0 <= u4_t2_h13 <= 1;
0 <= u4_t2_h14 <= 1;
0 <= u4_t2_h15 <= 1;
0 <= u4_t2_h16 <= 1;
0 <= u4_t2_h17 <= 1;
0 <= u4_t2_h18 <= 1;
0 <= u4_t2_h19 <= 1;
0 <= u4_t2_h20 <= 1;
u4_t2_h11 + u4_t2_h12 + u4_t2_h13 + u4_t2_h14 + u4_t2_h15 + u4_t2_h16 + u4_t2_h17 + u4_t2_h18 + u4_t2_h19 + u4_t2_h20 = 2;
0 <= u4_t3_h12 <= 1;
0 <= u4_t3_h13 <= 1;
0 <= u4_t3_h14 <= 1;
0 <= u4_t3_h15 <= 1;
0 <= u4_t3_h16 <= 1;
0 <= u4_t3_h17 <= 1;
0 <= u4_t3_h18 <= 1;
0 <= u4_t3_h19 <= 1;
u4_t3_h12 + u4_t3_h13 + u4_t3_h14 + u4_t3_h15 + u4_t3_h16 + u4_t3_h17 + u4_t3_h18 + u4_t3_h19 = 3;
0 <= u4_t4_h11 <= 1;
0 <= u4_t4_h12 <= 1;
0 <= u4_t4_h13 <= 1;
0 <= u4_t4_h14 <= 1;
0 <= u4_t4_h15 <= 1;
0 <= u4_t4_h16 <= 1;
u4_t4_h11 + u4_t4_h12 + u4_t4_h13 + u4_t4_h14 + u4_t4_h15 + u4_t4_h16 = 3;
0 <= u4_t5_h16 <= 1;
0 <= u4_t5_h17 <= 1;
0 <= u4_t5_h18 <= 1;
u4_t5_h16 + u4_t5_h17 + u4_t5_h18 = 1;
0 <= u4_t6_h19 <= 1;
0 <= u4_t6_h20 <= 1;
0 <= u4_t6_h21 <= 1;
0 <= u4_t6_h22 <= 1;
0 <= u4_t6_h23 <= 1;
u4_t6_h19 + u4_t6_h20 + u4_t6_h21 + u4_t6_h22 + u4_t6_h23 = 3;
0 <= u4_t7_h22 <= 1;
0 <= u4_t7_h23 <= 1;
u4_t7_h22 + u4_t7_h23 = 1;
0 <= u4_t8_h12 <= 1;
0 <= u4_t8_h13 <= 1;
0 <= u4_t8_h14 <= 1;
0 <= u4_t8_h15 <= 1;
0 <= u4_t8_h16 <= 1;
0 <= u4_t8_h17 <= 1;
0 <= u4_t8_h18 <= 1;
0 <= u4_t8_h19 <= 1;
u4_t8_h12 + u4_t8_h13 + u4_t8_h14 + u4_t8_h15 + u4_t8_h16 + u4_t8_h17 + u4_t8_h18 + u4_t8_h19 = 2;
0 <= u4_t9_h8 <= 1;
0 <= u4_t9_h9 <= 1;
0 <= u4_t9_h10 <= 1;
0 <= u4_t9_h11 <= 1;
0 <= u4_t9_h12 <= 1;
0 <= u4_t9_h13 <= 1;
0 <= u4_t9_h14 <= 1;
0 <= u4_t9_h15 <= 1;
0 <= u4_t9_h16 <= 1;
0 <= u4_t9_h17 <= 1;
0 <= u4_t9_h18 <= 1;
0 <= u4_t9_h19 <= 1;
0 <= u4_t9_h20 <= 1;
u4_t9_h8 + u4_t9_h9 + u4_t9_h10 + u4_t9_h11 + u4_t9_h12 + u4_t9_h13 + u4_t9_h14 + u4_t9_h15 + u4_t9_h16 + u4_t9_h17 + u4_t9_h18 + u4_t9_h19 + u4_t9_h20 = 2;
0 <= u4_t10_h4 <= 1;
0 <= u4_t10_h5 <= 1;
0 <= u4_t10_h6 <= 1;
0 <= u4_t10_h7 <= 1;
0 <= u4_t10_h8 <= 1;
0 <= u4_t10_h9 <= 1;
0 <= u4_t10_h10 <= 1;
0 <= u4_t10_h11 <= 1;
0 <= u4_t10_h12 <= 1;
u4_t10_h4 + u4_t10_h5 + u4_t10_h6 + u4_t10_h7 + u4_t10_h8 + u4_t10_h9 + u4_t10_h10 + u4_t10_h11 + u4_t10_h12 = 2;
